n = 10; 

m=14; 


21	46	33	15	26	1	27	11	3	1  
39	10	28	37	21	30	2	45	19	34
28	21	16	10	13	11	34	1	41	18
45	8	37	35	17	41	39	37	23	44
2	40	5	45	29	33	31	26	4	26
13	18	22	37	14	9	10	1	46	39
28	1	8	40	17	8	29	30	5	46
46	46	29	4	46	38	19	5	7	36
18	13	20	3	41	40	44	12	14	44
12	21	34	9	7	8	44	20	29	24
41	47	31	42	10	43	17	5	39	37
14	21	31	3	4	18	14	31	11	39
28	16	41	37	30	14	8	30	4	39
28	1	8	40	17	8	29	30	5	46
